     Program PWSCF v.6.4.1 starts on 20Jan2024 at 20:32: 5

     R & G space division:  proc/nbgrp/npool/nimage =       5
     Reading input from SCF.in

     Current dimensions of program PWSCF are:
     Max number of different atomic species (ntypx) = 10
     Max number of k-points (npk) =  40000
     Max angular momentum in pseudopotentials (lmaxx) =  3

     Subspace diagonalization in iterative solution of the eigenvalue problem:
     a serial algorithm will be used

     bravais-lattice index     =            5
     lattice parameter (alat)  =       7.8065  a.u.
     unit-cell volume          =     290.5898 (a.u.)^3
     number of atoms/cell      =            2
     number of atomic types    =            1
     number of electrons       =        10.00
     number of Kohn-Sham states=            9
     kinetic-energy cutoff     =      35.0000  Ry
     charge density cutoff     =     280.0000  Ry
     convergence threshold     =      1.0E-10
     mixing beta               =       0.7000
     number of iterations used =            8  plain     mixing
     Exchange-correlation      = PBE ( 1  4  3  4 0 0)

     celldm(1)=   7.806460  celldm(2)=   0.000000  celldm(3)=   0.000000
     celldm(4)=   0.585425  celldm(5)=   0.000000  celldm(6)=   0.000000

     crystal axes: (cart. coord. in units of alat)
               a(1) = (   0.455288  -0.262861   0.850657 )
               a(2) = (   0.000000   0.525722   0.850657 )
               a(3) = (  -0.455288  -0.262861   0.850657 )

     reciprocal axes: (cart. coord. in units 2 pi/alat)
               b(1) = (  1.098205 -0.634049  0.391854 )
               b(2) = (  0.000000  1.268098  0.391854 )
               b(3) = ( -1.098205 -0.634049  0.391854 )

     PseudoPot. # 1 for As read from file:
     C:/Users/navne/Downloads/quantumVITAS-0.3.0_windows/quantumVITAS-0.3.0_windows/pseudoPotLibs/SSSP_v1.1/SSSP_efficiency\As.pbe-n-rrkjus_psl.0.2.UPF
     MD5 check sum: 767315de957beeeb34f87d97bf945c8f
     Pseudo is Ultrasoft + core correction, Zval =  5.0
     Generated using "atomic" code by A. Dal Corso v.5.0.99 svn rev. 10869
     Using radial grid of 1209 points,  4 beta functions with:
                l(1) =   0
                l(2) =   0
                l(3) =   1
                l(4) =   1
     Q(r) pseudized with 0 coefficients

     atomic species   valence    mass     pseudopotential
        As             5.00    74.92160     As( 1.00)

     12 Sym. Ops., with inversion, found

   Cartesian axes

     site n.     atom                  positions (alat units)
         1           As  tau(   1) = (   0.0000000   0.0000000   0.5831214  )
         2           As  tau(   2) = (   0.0000000   0.0000000   1.9688466  )

     number of k points=    65  gaussian smearing, width (Ry)=  0.0200
                       cart. coord. in units 2pi/alat
        k(    1) = (   0.0000000   0.0000000   0.0000000), wk =   0.0039062
        k(    2) = (  -0.1372756  -0.0792561   0.0489818), wk =   0.0234375
        k(    3) = (  -0.2745513  -0.1585122   0.0979635), wk =   0.0234375
        k(    4) = (  -0.4118269  -0.2377684   0.1469453), wk =   0.0234375
        k(    5) = (   0.5491025   0.3170245  -0.1959271), wk =   0.0117188
        k(    6) = (  -0.1372756   0.0792561   0.0979635), wk =   0.0234375
        k(    7) = (  -0.2745513   0.0000000   0.1469453), wk =   0.0468750
        k(    8) = (  -0.4118269  -0.0792561   0.1959271), wk =   0.0468750
        k(    9) = (   0.5491025   0.4755367  -0.1469453), wk =   0.0468750
        k(   10) = (   0.4118269   0.3962806  -0.0979635), wk =   0.0468750
        k(   11) = (   0.2745513   0.3170245  -0.0489818), wk =   0.0468750
        k(   12) = (   0.1372756   0.2377684   0.0000000), wk =   0.0234375
        k(   13) = (  -0.2745513   0.1585122   0.1959271), wk =   0.0234375
        k(   14) = (  -0.4118269   0.0792561   0.2449089), wk =   0.0468750
        k(   15) = (   0.5491025   0.6340490  -0.0979635), wk =   0.0468750
        k(   16) = (   0.4118269   0.5547929  -0.0489818), wk =   0.0468750
        k(   17) = (   0.2745513   0.4755367   0.0000000), wk =   0.0234375
        k(   18) = (  -0.4118269   0.2377684   0.2938906), wk =   0.0234375
        k(   19) = (   0.5491025   0.7925612  -0.0489818), wk =   0.0468750
        k(   20) = (   0.4118269   0.7133051   0.0000000), wk =   0.0234375
        k(   21) = (   0.5491025  -0.3170245  -0.3918542), wk =   0.0117188
        k(   22) = (   0.0000000   0.0000000   0.1469453), wk =   0.0078125
        k(   23) = (  -0.1372756  -0.0792561   0.1959271), wk =   0.0234375
        k(   24) = (  -0.2745513  -0.1585122   0.2449089), wk =   0.0234375
        k(   25) = (   0.6863782   0.3962806  -0.0979635), wk =   0.0234375
        k(   26) = (   0.5491025   0.3170245  -0.0489818), wk =   0.0234375
        k(   27) = (   0.4118269   0.2377684   0.0000000), wk =   0.0234375
        k(   28) = (   0.2745513   0.1585122   0.0489818), wk =   0.0234375
        k(   29) = (  -0.1372756   0.0792561   0.2449089), wk =   0.0234375
        k(   30) = (  -0.2745513   0.0000000   0.2938906), wk =   0.0468750
        k(   31) = (   0.6863782   0.5547929  -0.0489818), wk =   0.0468750
        k(   32) = (   0.5491025   0.4755367   0.0000000), wk =   0.0468750
        k(   33) = (   0.4118269   0.3962806   0.0489818), wk =   0.0468750
        k(   34) = (   0.2745513   0.3170245   0.0979635), wk =   0.0468750
        k(   35) = (  -0.2745513   0.1585122   0.3428724), wk =   0.0234375
        k(   36) = (   0.6863782   0.7133051   0.0000000), wk =   0.0468750
        k(   37) = (   0.5491025   0.6340490   0.0489818), wk =   0.0468750
        k(   38) = (   0.4118269   0.5547929   0.0979635), wk =   0.0468750
        k(   39) = (   0.2745513   0.4755367   0.1469453), wk =   0.0468750
        k(   40) = (   0.6863782  -0.3962806  -0.3428724), wk =   0.0234375
        k(   41) = (   0.5491025  -0.4755367  -0.2938906), wk =   0.0468750
        k(   42) = (   0.4118269  -0.5547929  -0.2449089), wk =   0.0468750
        k(   43) = (   0.2745513  -0.6340490  -0.1959271), wk =   0.0234375
        k(   44) = (   0.5491025  -0.3170245  -0.2449089), wk =   0.0234375
        k(   45) = (   0.4118269  -0.3962806  -0.1959271), wk =   0.0468750
        k(   46) = (   0.4118269  -0.2377684  -0.1469453), wk =   0.0234375
        k(   47) = (   0.0000000   0.0000000   0.2938906), wk =   0.0078125
        k(   48) = (  -0.1372756  -0.0792561   0.3428724), wk =   0.0234375
        k(   49) = (   0.8236538   0.4755367   0.0000000), wk =   0.0234375
        k(   50) = (   0.6863782   0.3962806   0.0489818), wk =   0.0234375
        k(   51) = (   0.5491025   0.3170245   0.0979635), wk =   0.0234375
        k(   52) = (  -0.1372756   0.0792561   0.3918542), wk =   0.0234375
        k(   53) = (   0.8236538   0.6340490   0.0489818), wk =   0.0468750
        k(   54) = (   0.6863782   0.5547929   0.0979635), wk =   0.0468750
        k(   55) = (   0.5491025   0.4755367   0.1469453), wk =   0.0468750
        k(   56) = (   0.8236538  -0.4755367  -0.2938906), wk =   0.0234375
        k(   57) = (   0.6863782  -0.5547929  -0.2449089), wk =   0.0468750
        k(   58) = (   0.5491025  -0.6340490  -0.1959271), wk =   0.0234375
        k(   59) = (   0.6863782  -0.3962806  -0.1959271), wk =   0.0234375
        k(   60) = (   0.0000000   0.0000000   0.4408359), wk =   0.0078125
        k(   61) = (   0.9609294   0.5547929   0.0979635), wk =   0.0234375
        k(   62) = (   0.8236538   0.4755367   0.1469453), wk =   0.0234375
        k(   63) = (   0.9609294  -0.5547929  -0.2449089), wk =   0.0234375
        k(   64) = (   0.8236538  -0.6340490  -0.1959271), wk =   0.0234375
        k(   65) = (   0.0000000   0.0000000  -0.5877812), wk =   0.0039062

     Initial potential from superposition of free atoms

     starting charge    9.99953, renormalised to   10.00000
     Starting wfcs are    8 randomized atomic wfcs +    1 random wfcs

     Self-consistent Calculation

     iteration #  1     ecut=    35.00 Ry     beta= 0.70
     Davidson diagonalization with overlap
     ethr =  1.00E-02,  avg # of iterations =  4.7

     Threshold (ethr) on eigenvalues was too large:
     Diagonalizing with lowered threshold

     Davidson diagonalization with overlap
     ethr =  1.07E-04,  avg # of iterations =  2.2

     total energy              =     -36.39888538 Ry
     Harris-Foulkes estimate   =     -36.39940951 Ry
     estimated scf accuracy    <       0.01036967 Ry

[...]

     total energy              =     -36.39900221 Ry
     Harris-Foulkes estimate   =     -36.39900221 Ry
     estimated scf accuracy    <          1.3E-10 Ry

     iteration #  7     ecut=    35.00 Ry     beta= 0.70
     Davidson diagonalization with overlap
     ethr =  1.29E-12,  avg # of iterations =  2.0

     End of self-consistent calculation

          k = 0.0000 0.0000 0.0000 (  1015 PWs)   bands (ev):

    -7.3539   1.7428   5.0131   5.7233   5.7233   9.5286  10.6269  10.6269
    14.4658

          k =-0.1373-0.0793 0.0490 (  1010 PWs)   bands (ev):

[...]

          k =-0.1373 0.0793 0.3919 (  1018 PWs)   bands (ev):

[...]

          k = 0.0000 0.0000-0.5878 (  1014 PWs)   bands (ev):

    -5.9805  -2.5640   6.0059   6.0059   7.1959   8.3289   8.3289   9.3468
    15.8850

     the Fermi energy is     7.7296 ev

!    total energy              =     -36.39900221 Ry
     Harris-Foulkes estimate   =     -36.39900221 Ry
     estimated scf accuracy    <          3.2E-12 Ry

     The total energy is the sum of the following terms:

     one-electron contribution =       7.27526922 Ry
     hartree contribution      =       1.35578042 Ry
     xc contribution           =     -18.35531107 Ry
     ewald contribution        =     -26.67416242 Ry
     smearing contrib. (-TS)   =      -0.00057835 Ry

     convergence has been achieved in   7 iterations

     Writing output data file pwscf.save\

     General routines

     Parallel routines

   This run was terminated on:  20:32:14  20Jan2024

   JOB DONE.